benchmark/results/graph__10-1000-0.10-04_0/graph__10-1000-0.10-04_0_Quinton_Monolithic.lp
\ This file has been generated by DOcplex
\ ENCODING=ISO-8859-1
\Problem name: Quinton Monolithic

Maximize
 obj: tau
Subject To
 c1: tau - 0.000836820084 m_a0_proc_0 - 0.001036269430 m_a0_proc_1
     - 0.000844594595 m_a0_proc_2 <= 0
 c2: y_a0_proc_0 + y_a0_proc_1 + y_a0_proc_2 - tau = 0
 c3: m_a0_proc_0 + m_a0_proc_1 + m_a0_proc_2 = 1
 c4: y_a0_proc_0 - m_a0_proc_0 <= 0
 c5: y_a0_proc_0 >= 0
 c6: y_a0_proc_1 - m_a0_proc_1 <= 0
 c7: y_a0_proc_1 >= 0
 c8: y_a0_proc_2 - m_a0_proc_2 <= 0
 c9: y_a0_proc_2 >= 0
 c10: tau - 0.001779359431 m_a1_proc_1 - 0.000862068966 m_a1_proc_3 <= 0
 c11: y_a1_proc_1 + y_a1_proc_3 - tau = 0
 c12: m_a1_proc_1 + m_a1_proc_3 = 1
 c13: y_a1_proc_1 - m_a1_proc_1 <= 0
 c14: y_a1_proc_1 >= 0
 c15: y_a1_proc_3 - m_a1_proc_3 <= 0
 c16: y_a1_proc_3 >= 0
 c17: tau - 0.000843881857 m_a2_proc_0 - 0.001148105626 m_a2_proc_1
      - 0.001068376068 m_a2_proc_2 - 0.000888888889 m_a2_proc_3 <= 0
 c18: y_a2_proc_0 + y_a2_proc_1 + y_a2_proc_2 + y_a2_proc_3 - tau = 0
 c19: m_a2_proc_0 + m_a2_proc_1 + m_a2_proc_2 + m_a2_proc_3 = 1
 c20: y_a2_proc_0 - m_a2_proc_0 <= 0
 c21: y_a2_proc_0 >= 0
 c22: y_a2_proc_1 - m_a2_proc_1 <= 0
 c23: y_a2_proc_1 >= 0
 c24: y_a2_proc_2 - m_a2_proc_2 <= 0
 c25: y_a2_proc_2 >= 0
 c26: y_a2_proc_3 - m_a2_proc_3 <= 0
 c27: y_a2_proc_3 >= 0
 c28: tau - 0.000789889415 m_a3_proc_0 - 0.001443001443 m_a3_proc_1
      - 0.001200480192 m_a3_proc_2 - 0.001338688086 m_a3_proc_3 <= 0
 c29: y_a3_proc_0 + y_a3_proc_1 + y_a3_proc_2 + y_a3_proc_3 - tau = 0
 c30: m_a3_proc_0 + m_a3_proc_1 + m_a3_proc_2 + m_a3_proc_3 = 1
 c31: y_a3_proc_0 - m_a3_proc_0 <= 0
 c32: y_a3_proc_0 >= 0
 c33: y_a3_proc_1 - m_a3_proc_1 <= 0
 c34: y_a3_proc_1 >= 0
 c35: y_a3_proc_2 - m_a3_proc_2 <= 0
 c36: y_a3_proc_2 >= 0
 c37: y_a3_proc_3 - m_a3_proc_3 <= 0
 c38: y_a3_proc_3 >= 0
 c39: tau - 0.001091703057 m_a4_proc_1 - 0.001053740780 m_a4_proc_2 <= 0
 c40: y_a4_proc_1 + y_a4_proc_2 - tau = 0
 c41: m_a4_proc_1 + m_a4_proc_2 = 1
 c42: y_a4_proc_1 - m_a4_proc_1 <= 0
 c43: y_a4_proc_1 >= 0
 c44: y_a4_proc_2 - m_a4_proc_2 <= 0
 c45: y_a4_proc_2 >= 0
 c46: tau - 0.000843170320 m_a5_proc_0 - 0.001560062402 m_a5_proc_1
      - 0.000989119683 m_a5_proc_2 - 0.001035196687 m_a5_proc_3 <= 0
 c47: y_a5_proc_0 + y_a5_proc_1 + y_a5_proc_2 + y_a5_proc_3 - tau = 0
 c48: m_a5_proc_0 + m_a5_proc_1 + m_a5_proc_2 + m_a5_proc_3 = 1
 c49: y_a5_proc_0 - m_a5_proc_0 <= 0
 c50: y_a5_proc_0 >= 0
 c51: y_a5_proc_1 - m_a5_proc_1 <= 0
 c52: y_a5_proc_1 >= 0
 c53: y_a5_proc_2 - m_a5_proc_2 <= 0
 c54: y_a5_proc_2 >= 0
 c55: y_a5_proc_3 - m_a5_proc_3 <= 0
 c56: y_a5_proc_3 >= 0
 c57: tau - 0.000967117988 m_a6_proc_0 - 0.001267427123 m_a6_proc_2
      - 0.001754385965 m_a6_proc_3 <= 0
 c58: y_a6_proc_0 + y_a6_proc_2 + y_a6_proc_3 - tau = 0
 c59: m_a6_proc_0 + m_a6_proc_2 + m_a6_proc_3 = 1
 c60: y_a6_proc_0 - m_a6_proc_0 <= 0
 c61: y_a6_proc_0 >= 0
 c62: y_a6_proc_2 - m_a6_proc_2 <= 0
 c63: y_a6_proc_2 >= 0
 c64: y_a6_proc_3 - m_a6_proc_3 <= 0
 c65: y_a6_proc_3 >= 0
 c66: tau - 0.000823723229 m_a7_proc_1 - 0.000986193294 m_a7_proc_3 <= 0
 c67: y_a7_proc_1 + y_a7_proc_3 - tau = 0
 c68: m_a7_proc_1 + m_a7_proc_3 = 1
 c69: y_a7_proc_1 - m_a7_proc_1 <= 0
 c70: y_a7_proc_1 >= 0
 c71: y_a7_proc_3 - m_a7_proc_3 <= 0
 c72: y_a7_proc_3 >= 0
 c73: tau - 0.000889679715 m_a8_proc_1 <= 0
 c74: y_a8_proc_1 - tau = 0
 c75: m_a8_proc_1 = 1
 c76: y_a8_proc_1 - m_a8_proc_1 <= 0
 c77: y_a8_proc_1 >= 0
 c78: tau - 0.001763668430 m_a9_proc_0 - 0.001328021248 m_a9_proc_1
      - 0.000918273646 m_a9_proc_2 - 0.000868809731 m_a9_proc_3 <= 0
 c79: y_a9_proc_0 + y_a9_proc_1 + y_a9_proc_2 + y_a9_proc_3 - tau = 0
 c80: m_a9_proc_0 + m_a9_proc_1 + m_a9_proc_2 + m_a9_proc_3 = 1
 c81: y_a9_proc_0 - m_a9_proc_0 <= 0
 c82: y_a9_proc_0 >= 0
 c83: y_a9_proc_1 - m_a9_proc_1 <= 0
 c84: y_a9_proc_1 >= 0
 c85: y_a9_proc_2 - m_a9_proc_2 <= 0
 c86: y_a9_proc_2 >= 0
 c87: y_a9_proc_3 - m_a9_proc_3 <= 0
 c88: y_a9_proc_3 >= 0
 c89: u_a1 - u_a0 - 1195 y_a0_proc_0 - 965 y_a0_proc_1 - 1184 y_a0_proc_2 >= 0
 c90: u_a2 - u_a0 - 1195 y_a0_proc_0 - 965 y_a0_proc_1 - 1184 y_a0_proc_2 >= 0
 c91: u_a0 - u_a3 - 1266 y_a3_proc_0 - 693 y_a3_proc_1 - 833 y_a3_proc_2
      - 747 y_a3_proc_3 >= -2
 c92: u_a4 - u_a2 - 1185 y_a2_proc_0 - 871 y_a2_proc_1 - 936 y_a2_proc_2
      - 1125 y_a2_proc_3 >= 0
 c93: u_a4 - u_a5 - 1186 y_a5_proc_0 - 641 y_a5_proc_1 - 1011 y_a5_proc_2
      - 966 y_a5_proc_3 >= 0
 c94: u_a0 - u_a6 - 1034 y_a6_proc_0 - 789 y_a6_proc_2 - 570 y_a6_proc_3 >= 0
 c95: u_a5 - u_a7 - 1214 y_a7_proc_1 - 1014 y_a7_proc_3 >= 0
 c96: u_a8 - u_a1 - 562 y_a1_proc_1 - 1160 y_a1_proc_3 >= 0
 c97: u_a3 - u_a9 - 567 y_a9_proc_0 - 753 y_a9_proc_1 - 1089 y_a9_proc_2
      - 1151 y_a9_proc_3 >= 0
 c98: u_a3 - u_a1 - 562 y_a1_proc_1 - 1160 y_a1_proc_3 >= 0
 c99: u_a9 - u_a1 - 562 y_a1_proc_1 - 1160 y_a1_proc_3 >= 0
 c100: - 1214 y_a7_proc_1 - 1014 y_a7_proc_3 >= -1
 c101: u_a7 - u_a2 - 1185 y_a2_proc_0 - 871 y_a2_proc_1 - 936 y_a2_proc_2
       - 1125 y_a2_proc_3 >= 0
 c102: u_a6 - u_a3 - 1266 y_a3_proc_0 - 693 y_a3_proc_1 - 833 y_a3_proc_2
       - 747 y_a3_proc_3 >= -1
 c103: u_a9 - u_a0 - 1195 y_a0_proc_0 - 965 y_a0_proc_1 - 1184 y_a0_proc_2 >= 0
 c104: u_a4 - u_a8 - 1124 y_a8_proc_1 >= 0
 c105: u_a6 - u_a4 - 916 y_a4_proc_1 - 949 y_a4_proc_2 >= -1
 c106: u_a7 - u_a4 - 916 y_a4_proc_1 - 949 y_a4_proc_2 >= -1
 c107: u_a1 + K_a0_a1 - 1266 m_a0_proc_1 - 1266 m_a1_proc_1 - u_a0
       - 965 y_a0_proc_1 >= -2532
 c108: K_a0_a1 + K_a1_a0 = 1
 c109: u_a0 + K_a1_a0 - 1266 m_a0_proc_1 - 1266 m_a1_proc_1 - u_a1
       - 562 y_a1_proc_1 >= -2532
 c110: K_a0_a1 + K_a1_a0 = 1
 c111: u_a2 + K_a0_a2 - 1266 m_a0_proc_2 - 1266 m_a2_proc_2 - u_a0
       - 1184 y_a0_proc_2 >= -2532
 c112: u_a2 + K_a0_a2 - 1266 m_a0_proc_0 - 1266 m_a2_proc_0 - u_a0
       - 1195 y_a0_proc_0 >= -2532
 c113: u_a2 + K_a0_a2 - 1266 m_a0_proc_1 - 1266 m_a2_proc_1 - u_a0
       - 965 y_a0_proc_1 >= -2532
 c114: K_a0_a2 + K_a2_a0 = 1
 c115: u_a0 + K_a2_a0 - 1266 m_a0_proc_2 - 1266 m_a2_proc_2 - u_a2
       - 936 y_a2_proc_2 >= -2532
 c116: u_a0 + K_a2_a0 - 1266 m_a0_proc_0 - 1266 m_a2_proc_0 - u_a2
       - 1185 y_a2_proc_0 >= -2532
 c117: u_a0 + K_a2_a0 - 1266 m_a0_proc_1 - 1266 m_a2_proc_1 - u_a2
       - 871 y_a2_proc_1 >= -2532
 c118: K_a0_a2 + K_a2_a0 = 1
 c119: u_a3 + K_a0_a3 - 1266 m_a0_proc_2 - 1266 m_a3_proc_2 - u_a0
       - 1184 y_a0_proc_2 >= -2532
 c120: u_a3 + K_a0_a3 - 1266 m_a0_proc_0 - 1266 m_a3_proc_0 - u_a0
       - 1195 y_a0_proc_0 >= -2532
 c121: u_a3 + K_a0_a3 - 1266 m_a0_proc_1 - 1266 m_a3_proc_1 - u_a0
       - 965 y_a0_proc_1 >= -2532
 c122: K_a0_a3 + K_a3_a0 = 1
 c123: u_a0 + K_a3_a0 - 1266 m_a0_proc_2 - 1266 m_a3_proc_2 - u_a3
       - 833 y_a3_proc_2 >= -2532
 c124: u_a0 + K_a3_a0 - 1266 m_a0_proc_0 - 1266 m_a3_proc_0 - u_a3
       - 1266 y_a3_proc_0 >= -2532
 c125: u_a0 + K_a3_a0 - 1266 m_a0_proc_1 - 1266 m_a3_proc_1 - u_a3
       - 693 y_a3_proc_1 >= -2532
 c126: K_a0_a3 + K_a3_a0 = 1
 c127: u_a4 + K_a0_a4 - 1266 m_a0_proc_2 - 1266 m_a4_proc_2 - u_a0
       - 1184 y_a0_proc_2 >= -2532
 c128: u_a4 + K_a0_a4 - 1266 m_a0_proc_1 - 1266 m_a4_proc_1 - u_a0
       - 965 y_a0_proc_1 >= -2532
 c129: K_a0_a4 + K_a4_a0 = 1
 c130: u_a0 + K_a4_a0 - 1266 m_a0_proc_2 - 1266 m_a4_proc_2 - u_a4
       - 949 y_a4_proc_2 >= -2532
 c131: u_a0 + K_a4_a0 - 1266 m_a0_proc_1 - 1266 m_a4_proc_1 - u_a4
       - 916 y_a4_proc_1 >= -2532
 c132: K_a0_a4 + K_a4_a0 = 1
 c133: u_a5 + K_a0_a5 - 1266 m_a0_proc_2 - 1266 m_a5_proc_2 - u_a0
       - 1184 y_a0_proc_2 >= -2532
 c134: u_a5 + K_a0_a5 - 1266 m_a0_proc_0 - 1266 m_a5_proc_0 - u_a0
       - 1195 y_a0_proc_0 >= -2532
 c135: u_a5 + K_a0_a5 - 1266 m_a0_proc_1 - 1266 m_a5_proc_1 - u_a0
       - 965 y_a0_proc_1 >= -2532
 c136: K_a0_a5 + K_a5_a0 = 1
 c137: u_a0 + K_a5_a0 - 1266 m_a0_proc_2 - 1266 m_a5_proc_2 - u_a5
       - 1011 y_a5_proc_2 >= -2532
 c138: u_a0 + K_a5_a0 - 1266 m_a0_proc_0 - 1266 m_a5_proc_0 - u_a5
       - 1186 y_a5_proc_0 >= -2532
 c139: u_a0 + K_a5_a0 - 1266 m_a0_proc_1 - 1266 m_a5_proc_1 - u_a5
       - 641 y_a5_proc_1 >= -2532
 c140: K_a0_a5 + K_a5_a0 = 1
 c141: u_a6 + K_a0_a6 - 1266 m_a0_proc_2 - 1266 m_a6_proc_2 - u_a0
       - 1184 y_a0_proc_2 >= -2532
 c142: u_a6 + K_a0_a6 - 1266 m_a0_proc_0 - 1266 m_a6_proc_0 - u_a0
       - 1195 y_a0_proc_0 >= -2532
 c143: K_a0_a6 + K_a6_a0 = 1
 c144: u_a0 + K_a6_a0 - 1266 m_a0_proc_2 - 1266 m_a6_proc_2 - u_a6
       - 789 y_a6_proc_2 >= -2532
 c145: u_a0 + K_a6_a0 - 1266 m_a0_proc_0 - 1266 m_a6_proc_0 - u_a6
       - 1034 y_a6_proc_0 >= -2532
 c146: K_a0_a6 + K_a6_a0 = 1
 c147: u_a7 + K_a0_a7 - 1266 m_a0_proc_1 - 1266 m_a7_proc_1 - u_a0
       - 965 y_a0_proc_1 >= -2532
 c148: K_a0_a7 + K_a7_a0 = 1
 c149: u_a0 + K_a7_a0 - 1266 m_a0_proc_1 - 1266 m_a7_proc_1 - u_a7
       - 1214 y_a7_proc_1 >= -2532
 c150: K_a0_a7 + K_a7_a0 = 1
 c151: u_a8 + K_a0_a8 - 1266 m_a0_proc_1 - 1266 m_a8_proc_1 - u_a0
       - 965 y_a0_proc_1 >= -2532
 c152: K_a0_a8 + K_a8_a0 = 1
 c153: u_a0 + K_a8_a0 - 1266 m_a0_proc_1 - 1266 m_a8_proc_1 - u_a8
       - 1124 y_a8_proc_1 >= -2532
 c154: K_a0_a8 + K_a8_a0 = 1
 c155: u_a9 + K_a0_a9 - 1266 m_a0_proc_2 - 1266 m_a9_proc_2 - u_a0
       - 1184 y_a0_proc_2 >= -2532
 c156: u_a9 + K_a0_a9 - 1266 m_a0_proc_0 - 1266 m_a9_proc_0 - u_a0
       - 1195 y_a0_proc_0 >= -2532
 c157: u_a9 + K_a0_a9 - 1266 m_a0_proc_1 - 1266 m_a9_proc_1 - u_a0
       - 965 y_a0_proc_1 >= -2532
 c158: K_a0_a9 + K_a9_a0 = 1
 c159: u_a0 + K_a9_a0 - 1266 m_a0_proc_2 - 1266 m_a9_proc_2 - u_a9
       - 1089 y_a9_proc_2 >= -2532
 c160: u_a0 + K_a9_a0 - 1266 m_a0_proc_0 - 1266 m_a9_proc_0 - u_a9
       - 567 y_a9_proc_0 >= -2532
 c161: u_a0 + K_a9_a0 - 1266 m_a0_proc_1 - 1266 m_a9_proc_1 - u_a9
       - 753 y_a9_proc_1 >= -2532
 c162: K_a0_a9 + K_a9_a0 = 1
 c163: u_a2 + K_a1_a2 - 1266 m_a1_proc_3 - 1266 m_a2_proc_3 - u_a1
       - 1160 y_a1_proc_3 >= -2532
 c164: u_a2 + K_a1_a2 - 1266 m_a1_proc_1 - 1266 m_a2_proc_1 - u_a1
       - 562 y_a1_proc_1 >= -2532
 c165: K_a1_a2 + K_a2_a1 = 1
 c166: u_a1 + K_a2_a1 - 1266 m_a1_proc_3 - 1266 m_a2_proc_3 - u_a2
       - 1125 y_a2_proc_3 >= -2532
 c167: u_a1 + K_a2_a1 - 1266 m_a1_proc_1 - 1266 m_a2_proc_1 - u_a2
       - 871 y_a2_proc_1 >= -2532
 c168: K_a1_a2 + K_a2_a1 = 1
 c169: u_a3 + K_a1_a3 - 1266 m_a1_proc_3 - 1266 m_a3_proc_3 - u_a1
       - 1160 y_a1_proc_3 >= -2532
 c170: u_a3 + K_a1_a3 - 1266 m_a1_proc_1 - 1266 m_a3_proc_1 - u_a1
       - 562 y_a1_proc_1 >= -2532
 c171: K_a1_a3 + K_a3_a1 = 1
 c172: u_a1 + K_a3_a1 - 1266 m_a1_proc_3 - 1266 m_a3_proc_3 - u_a3
       - 747 y_a3_proc_3 >= -2532
 c173: u_a1 + K_a3_a1 - 1266 m_a1_proc_1 - 1266 m_a3_proc_1 - u_a3
       - 693 y_a3_proc_1 >= -2532
 c174: K_a1_a3 + K_a3_a1 = 1
 c175: u_a4 + K_a1_a4 - 1266 m_a1_proc_1 - 1266 m_a4_proc_1 - u_a1
       - 562 y_a1_proc_1 >= -2532
 c176: K_a1_a4 + K_a4_a1 = 1
 c177: u_a1 + K_a4_a1 - 1266 m_a1_proc_1 - 1266 m_a4_proc_1 - u_a4
       - 916 y_a4_proc_1 >= -2532
 c178: K_a1_a4 + K_a4_a1 = 1
 c179: u_a5 + K_a1_a5 - 1266 m_a1_proc_3 - 1266 m_a5_proc_3 - u_a1
       - 1160 y_a1_proc_3 >= -2532
 c180: u_a5 + K_a1_a5 - 1266 m_a1_proc_1 - 1266 m_a5_proc_1 - u_a1
       - 562 y_a1_proc_1 >= -2532
 c181: K_a1_a5 + K_a5_a1 = 1
 c182: u_a1 + K_a5_a1 - 1266 m_a1_proc_3 - 1266 m_a5_proc_3 - u_a5
       - 966 y_a5_proc_3 >= -2532
 c183: u_a1 + K_a5_a1 - 1266 m_a1_proc_1 - 1266 m_a5_proc_1 - u_a5
       - 641 y_a5_proc_1 >= -2532
 c184: K_a1_a5 + K_a5_a1 = 1
 c185: u_a6 + K_a1_a6 - 1266 m_a1_proc_3 - 1266 m_a6_proc_3 - u_a1
       - 1160 y_a1_proc_3 >= -2532
 c186: K_a1_a6 + K_a6_a1 = 1
 c187: u_a1 + K_a6_a1 - 1266 m_a1_proc_3 - 1266 m_a6_proc_3 - u_a6
       - 570 y_a6_proc_3 >= -2532
 c188: K_a1_a6 + K_a6_a1 = 1
 c189: u_a7 + K_a1_a7 - 1266 m_a1_proc_3 - 1266 m_a7_proc_3 - u_a1
       - 1160 y_a1_proc_3 >= -2532
 c190: u_a7 + K_a1_a7 - 1266 m_a1_proc_1 - 1266 m_a7_proc_1 - u_a1
       - 562 y_a1_proc_1 >= -2532
 c191: K_a1_a7 + K_a7_a1 = 1
 c192: u_a1 + K_a7_a1 - 1266 m_a1_proc_3 - 1266 m_a7_proc_3 - u_a7
       - 1014 y_a7_proc_3 >= -2532
 c193: u_a1 + K_a7_a1 - 1266 m_a1_proc_1 - 1266 m_a7_proc_1 - u_a7
       - 1214 y_a7_proc_1 >= -2532
 c194: K_a1_a7 + K_a7_a1 = 1
 c195: u_a8 + K_a1_a8 - 1266 m_a1_proc_1 - 1266 m_a8_proc_1 - u_a1
       - 562 y_a1_proc_1 >= -2532
 c196: K_a1_a8 + K_a8_a1 = 1
 c197: u_a1 + K_a8_a1 - 1266 m_a1_proc_1 - 1266 m_a8_proc_1 - u_a8
       - 1124 y_a8_proc_1 >= -2532
 c198: K_a1_a8 + K_a8_a1 = 1
 c199: u_a9 + K_a1_a9 - 1266 m_a1_proc_3 - 1266 m_a9_proc_3 - u_a1
       - 1160 y_a1_proc_3 >= -2532
 c200: u_a9 + K_a1_a9 - 1266 m_a1_proc_1 - 1266 m_a9_proc_1 - u_a1
       - 562 y_a1_proc_1 >= -2532
 c201: K_a1_a9 + K_a9_a1 = 1
 c202: u_a1 + K_a9_a1 - 1266 m_a1_proc_3 - 1266 m_a9_proc_3 - u_a9
       - 1151 y_a9_proc_3 >= -2532
 c203: u_a1 + K_a9_a1 - 1266 m_a1_proc_1 - 1266 m_a9_proc_1 - u_a9
       - 753 y_a9_proc_1 >= -2532
 c204: K_a1_a9 + K_a9_a1 = 1
 c205: u_a3 + K_a2_a3 - 1266 m_a2_proc_2 - 1266 m_a3_proc_2 - u_a2
       - 936 y_a2_proc_2 >= -2532
 c206: u_a3 + K_a2_a3 - 1266 m_a2_proc_3 - 1266 m_a3_proc_3 - u_a2
       - 1125 y_a2_proc_3 >= -2532
 c207: u_a3 + K_a2_a3 - 1266 m_a2_proc_0 - 1266 m_a3_proc_0 - u_a2
       - 1185 y_a2_proc_0 >= -2532
 c208: u_a3 + K_a2_a3 - 1266 m_a2_proc_1 - 1266 m_a3_proc_1 - u_a2
       - 871 y_a2_proc_1 >= -2532
 c209: K_a2_a3 + K_a3_a2 = 1
 c210: u_a2 + K_a3_a2 - 1266 m_a2_proc_2 - 1266 m_a3_proc_2 - u_a3
       - 833 y_a3_proc_2 >= -2532
 c211: u_a2 + K_a3_a2 - 1266 m_a2_proc_3 - 1266 m_a3_proc_3 - u_a3
       - 747 y_a3_proc_3 >= -2532
 c212: u_a2 + K_a3_a2 - 1266 m_a2_proc_0 - 1266 m_a3_proc_0 - u_a3
       - 1266 y_a3_proc_0 >= -2532
 c213: u_a2 + K_a3_a2 - 1266 m_a2_proc_1 - 1266 m_a3_proc_1 - u_a3
       - 693 y_a3_proc_1 >= -2532
 c214: K_a2_a3 + K_a3_a2 = 1
 c215: u_a4 + K_a2_a4 - 1266 m_a2_proc_2 - 1266 m_a4_proc_2 - u_a2
       - 936 y_a2_proc_2 >= -2532
 c216: u_a4 + K_a2_a4 - 1266 m_a2_proc_1 - 1266 m_a4_proc_1 - u_a2
       - 871 y_a2_proc_1 >= -2532
 c217: K_a2_a4 + K_a4_a2 = 1
 c218: u_a2 + K_a4_a2 - 1266 m_a2_proc_2 - 1266 m_a4_proc_2 - u_a4
       - 949 y_a4_proc_2 >= -2532
 c219: u_a2 + K_a4_a2 - 1266 m_a2_proc_1 - 1266 m_a4_proc_1 - u_a4
       - 916 y_a4_proc_1 >= -2532
 c220: K_a2_a4 + K_a4_a2 = 1
 c221: u_a5 + K_a2_a5 - 1266 m_a2_proc_2 - 1266 m_a5_proc_2 - u_a2
       - 936 y_a2_proc_2 >= -2532
 c222: u_a5 + K_a2_a5 - 1266 m_a2_proc_3 - 1266 m_a5_proc_3 - u_a2
       - 1125 y_a2_proc_3 >= -2532
 c223: u_a5 + K_a2_a5 - 1266 m_a2_proc_0 - 1266 m_a5_proc_0 - u_a2
       - 1185 y_a2_proc_0 >= -2532
 c224: u_a5 + K_a2_a5 - 1266 m_a2_proc_1 - 1266 m_a5_proc_1 - u_a2
       - 871 y_a2_proc_1 >= -2532
 c225: K_a2_a5 + K_a5_a2 = 1
 c226: u_a2 + K_a5_a2 - 1266 m_a2_proc_2 - 1266 m_a5_proc_2 - u_a5
       - 1011 y_a5_proc_2 >= -2532
 c227: u_a2 + K_a5_a2 - 1266 m_a2_proc_3 - 1266 m_a5_proc_3 - u_a5
       - 966 y_a5_proc_3 >= -2532
 c228: u_a2 + K_a5_a2 - 1266 m_a2_proc_0 - 1266 m_a5_proc_0 - u_a5
       - 1186 y_a5_proc_0 >= -2532
 c229: u_a2 + K_a5_a2 - 1266 m_a2_proc_1 - 1266 m_a5_proc_1 - u_a5
       - 641 y_a5_proc_1 >= -2532
 c230: K_a2_a5 + K_a5_a2 = 1
 c231: u_a6 + K_a2_a6 - 1266 m_a2_proc_2 - 1266 m_a6_proc_2 - u_a2
       - 936 y_a2_proc_2 >= -2532
 c232: u_a6 + K_a2_a6 - 1266 m_a2_proc_3 - 1266 m_a6_proc_3 - u_a2
       - 1125 y_a2_proc_3 >= -2532
 c233: u_a6 + K_a2_a6 - 1266 m_a2_proc_0 - 1266 m_a6_proc_0 - u_a2
       - 1185 y_a2_proc_0 >= -2532
 c234: K_a2_a6 + K_a6_a2 = 1
 c235: u_a2 + K_a6_a2 - 1266 m_a2_proc_2 - 1266 m_a6_proc_2 - u_a6
       - 789 y_a6_proc_2 >= -2532
 c236: u_a2 + K_a6_a2 - 1266 m_a2_proc_3 - 1266 m_a6_proc_3 - u_a6
       - 570 y_a6_proc_3 >= -2532
 c237: u_a2 + K_a6_a2 - 1266 m_a2_proc_0 - 1266 m_a6_proc_0 - u_a6
       - 1034 y_a6_proc_0 >= -2532
 c238: K_a2_a6 + K_a6_a2 = 1
 c239: u_a7 + K_a2_a7 - 1266 m_a2_proc_3 - 1266 m_a7_proc_3 - u_a2
       - 1125 y_a2_proc_3 >= -2532
 c240: u_a7 + K_a2_a7 - 1266 m_a2_proc_1 - 1266 m_a7_proc_1 - u_a2
       - 871 y_a2_proc_1 >= -2532
 c241: K_a2_a7 + K_a7_a2 = 1
 c242: u_a2 + K_a7_a2 - 1266 m_a2_proc_3 - 1266 m_a7_proc_3 - u_a7
       - 1014 y_a7_proc_3 >= -2532
 c243: u_a2 + K_a7_a2 - 1266 m_a2_proc_1 - 1266 m_a7_proc_1 - u_a7
       - 1214 y_a7_proc_1 >= -2532
 c244: K_a2_a7 + K_a7_a2 = 1
 c245: u_a8 + K_a2_a8 - 1266 m_a2_proc_1 - 1266 m_a8_proc_1 - u_a2
       - 871 y_a2_proc_1 >= -2532
 c246: K_a2_a8 + K_a8_a2 = 1
 c247: u_a2 + K_a8_a2 - 1266 m_a2_proc_1 - 1266 m_a8_proc_1 - u_a8
       - 1124 y_a8_proc_1 >= -2532
 c248: K_a2_a8 + K_a8_a2 = 1
 c249: u_a9 + K_a2_a9 - 1266 m_a2_proc_2 - 1266 m_a9_proc_2 - u_a2
       - 936 y_a2_proc_2 >= -2532
 c250: u_a9 + K_a2_a9 - 1266 m_a2_proc_3 - 1266 m_a9_proc_3 - u_a2
       - 1125 y_a2_proc_3 >= -2532
 c251: u_a9 + K_a2_a9 - 1266 m_a2_proc_0 - 1266 m_a9_proc_0 - u_a2
       - 1185 y_a2_proc_0 >= -2532
 c252: u_a9 + K_a2_a9 - 1266 m_a2_proc_1 - 1266 m_a9_proc_1 - u_a2
       - 871 y_a2_proc_1 >= -2532
 c253: K_a2_a9 + K_a9_a2 = 1
 c254: u_a2 + K_a9_a2 - 1266 m_a2_proc_2 - 1266 m_a9_proc_2 - u_a9
       - 1089 y_a9_proc_2 >= -2532
 c255: u_a2 + K_a9_a2 - 1266 m_a2_proc_3 - 1266 m_a9_proc_3 - u_a9
       - 1151 y_a9_proc_3 >= -2532
 c256: u_a2 + K_a9_a2 - 1266 m_a2_proc_0 - 1266 m_a9_proc_0 - u_a9
       - 567 y_a9_proc_0 >= -2532
 c257: u_a2 + K_a9_a2 - 1266 m_a2_proc_1 - 1266 m_a9_proc_1 - u_a9
       - 753 y_a9_proc_1 >= -2532
 c258: K_a2_a9 + K_a9_a2 = 1
 c259: u_a4 + K_a3_a4 - 1266 m_a3_proc_2 - 1266 m_a4_proc_2 - u_a3
       - 833 y_a3_proc_2 >= -2532
 c260: u_a4 + K_a3_a4 - 1266 m_a3_proc_1 - 1266 m_a4_proc_1 - u_a3
       - 693 y_a3_proc_1 >= -2532
 c261: K_a3_a4 + K_a4_a3 = 1
 c262: u_a3 + K_a4_a3 - 1266 m_a3_proc_2 - 1266 m_a4_proc_2 - u_a4
       - 949 y_a4_proc_2 >= -2532
 c263: u_a3 + K_a4_a3 - 1266 m_a3_proc_1 - 1266 m_a4_proc_1 - u_a4
       - 916 y_a4_proc_1 >= -2532
 c264: K_a3_a4 + K_a4_a3 = 1
 c265: u_a5 + K_a3_a5 - 1266 m_a3_proc_2 - 1266 m_a5_proc_2 - u_a3
       - 833 y_a3_proc_2 >= -2532
 c266: u_a5 + K_a3_a5 - 1266 m_a3_proc_3 - 1266 m_a5_proc_3 - u_a3
       - 747 y_a3_proc_3 >= -2532
 c267: u_a5 + K_a3_a5 - 1266 m_a3_proc_0 - 1266 m_a5_proc_0 - u_a3
       - 1266 y_a3_proc_0 >= -2532
 c268: u_a5 + K_a3_a5 - 1266 m_a3_proc_1 - 1266 m_a5_proc_1 - u_a3
       - 693 y_a3_proc_1 >= -2532
 c269: K_a3_a5 + K_a5_a3 = 1
 c270: u_a3 + K_a5_a3 - 1266 m_a3_proc_2 - 1266 m_a5_proc_2 - u_a5
       - 1011 y_a5_proc_2 >= -2532
 c271: u_a3 + K_a5_a3 - 1266 m_a3_proc_3 - 1266 m_a5_proc_3 - u_a5
       - 966 y_a5_proc_3 >= -2532
 c272: u_a3 + K_a5_a3 - 1266 m_a3_proc_0 - 1266 m_a5_proc_0 - u_a5
       - 1186 y_a5_proc_0 >= -2532
 c273: u_a3 + K_a5_a3 - 1266 m_a3_proc_1 - 1266 m_a5_proc_1 - u_a5
       - 641 y_a5_proc_1 >= -2532
 c274: K_a3_a5 + K_a5_a3 = 1
 c275: u_a6 + K_a3_a6 - 1266 m_a3_proc_2 - 1266 m_a6_proc_2 - u_a3
       - 833 y_a3_proc_2 >= -2532
 c276: u_a6 + K_a3_a6 - 1266 m_a3_proc_3 - 1266 m_a6_proc_3 - u_a3
       - 747 y_a3_proc_3 >= -2532
 c277: u_a6 + K_a3_a6 - 1266 m_a3_proc_0 - 1266 m_a6_proc_0 - u_a3
       - 1266 y_a3_proc_0 >= -2532
 c278: K_a3_a6 + K_a6_a3 = 1
 c279: u_a3 + K_a6_a3 - 1266 m_a3_proc_2 - 1266 m_a6_proc_2 - u_a6
       - 789 y_a6_proc_2 >= -2532
 c280: u_a3 + K_a6_a3 - 1266 m_a3_proc_3 - 1266 m_a6_proc_3 - u_a6
       - 570 y_a6_proc_3 >= -2532
 c281: u_a3 + K_a6_a3 - 1266 m_a3_proc_0 - 1266 m_a6_proc_0 - u_a6
       - 1034 y_a6_proc_0 >= -2532
 c282: K_a3_a6 + K_a6_a3 = 1
 c283: u_a7 + K_a3_a7 - 1266 m_a3_proc_3 - 1266 m_a7_proc_3 - u_a3
       - 747 y_a3_proc_3 >= -2532
 c284: u_a7 + K_a3_a7 - 1266 m_a3_proc_1 - 1266 m_a7_proc_1 - u_a3
       - 693 y_a3_proc_1 >= -2532
 c285: K_a3_a7 + K_a7_a3 = 1
 c286: u_a3 + K_a7_a3 - 1266 m_a3_proc_3 - 1266 m_a7_proc_3 - u_a7
       - 1014 y_a7_proc_3 >= -2532
 c287: u_a3 + K_a7_a3 - 1266 m_a3_proc_1 - 1266 m_a7_proc_1 - u_a7
       - 1214 y_a7_proc_1 >= -2532
 c288: K_a3_a7 + K_a7_a3 = 1
 c289: u_a8 + K_a3_a8 - 1266 m_a3_proc_1 - 1266 m_a8_proc_1 - u_a3
       - 693 y_a3_proc_1 >= -2532
 c290: K_a3_a8 + K_a8_a3 = 1
 c291: u_a3 + K_a8_a3 - 1266 m_a3_proc_1 - 1266 m_a8_proc_1 - u_a8
       - 1124 y_a8_proc_1 >= -2532
 c292: K_a3_a8 + K_a8_a3 = 1
 c293: u_a9 + K_a3_a9 - 1266 m_a3_proc_2 - 1266 m_a9_proc_2 - u_a3
       - 833 y_a3_proc_2 >= -2532
 c294: u_a9 + K_a3_a9 - 1266 m_a3_proc_3 - 1266 m_a9_proc_3 - u_a3
       - 747 y_a3_proc_3 >= -2532
 c295: u_a9 + K_a3_a9 - 1266 m_a3_proc_0 - 1266 m_a9_proc_0 - u_a3
       - 1266 y_a3_proc_0 >= -2532
 c296: u_a9 + K_a3_a9 - 1266 m_a3_proc_1 - 1266 m_a9_proc_1 - u_a3
       - 693 y_a3_proc_1 >= -2532
 c297: K_a3_a9 + K_a9_a3 = 1
 c298: u_a3 + K_a9_a3 - 1266 m_a3_proc_2 - 1266 m_a9_proc_2 - u_a9
       - 1089 y_a9_proc_2 >= -2532
 c299: u_a3 + K_a9_a3 - 1266 m_a3_proc_3 - 1266 m_a9_proc_3 - u_a9
       - 1151 y_a9_proc_3 >= -2532
 c300: u_a3 + K_a9_a3 - 1266 m_a3_proc_0 - 1266 m_a9_proc_0 - u_a9
       - 567 y_a9_proc_0 >= -2532
 c301: u_a3 + K_a9_a3 - 1266 m_a3_proc_1 - 1266 m_a9_proc_1 - u_a9
       - 753 y_a9_proc_1 >= -2532
 c302: K_a3_a9 + K_a9_a3 = 1
 c303: u_a5 + K_a4_a5 - 1266 m_a4_proc_2 - 1266 m_a5_proc_2 - u_a4
       - 949 y_a4_proc_2 >= -2532
 c304: u_a5 + K_a4_a5 - 1266 m_a4_proc_1 - 1266 m_a5_proc_1 - u_a4
       - 916 y_a4_proc_1 >= -2532
 c305: K_a4_a5 + K_a5_a4 = 1
 c306: u_a4 + K_a5_a4 - 1266 m_a4_proc_2 - 1266 m_a5_proc_2 - u_a5
       - 1011 y_a5_proc_2 >= -2532
 c307: u_a4 + K_a5_a4 - 1266 m_a4_proc_1 - 1266 m_a5_proc_1 - u_a5
       - 641 y_a5_proc_1 >= -2532
 c308: K_a4_a5 + K_a5_a4 = 1
 c309: u_a6 + K_a4_a6 - 1266 m_a4_proc_2 - 1266 m_a6_proc_2 - u_a4
       - 949 y_a4_proc_2 >= -2532
 c310: K_a4_a6 + K_a6_a4 = 1
 c311: u_a4 + K_a6_a4 - 1266 m_a4_proc_2 - 1266 m_a6_proc_2 - u_a6
       - 789 y_a6_proc_2 >= -2532
 c312: K_a4_a6 + K_a6_a4 = 1
 c313: u_a7 + K_a4_a7 - 1266 m_a4_proc_1 - 1266 m_a7_proc_1 - u_a4
       - 916 y_a4_proc_1 >= -2532
 c314: K_a4_a7 + K_a7_a4 = 1
 c315: u_a4 + K_a7_a4 - 1266 m_a4_proc_1 - 1266 m_a7_proc_1 - u_a7
       - 1214 y_a7_proc_1 >= -2532
 c316: K_a4_a7 + K_a7_a4 = 1
 c317: u_a8 + K_a4_a8 - 1266 m_a4_proc_1 - 1266 m_a8_proc_1 - u_a4
       - 916 y_a4_proc_1 >= -2532
 c318: K_a4_a8 + K_a8_a4 = 1
 c319: u_a4 + K_a8_a4 - 1266 m_a4_proc_1 - 1266 m_a8_proc_1 - u_a8
       - 1124 y_a8_proc_1 >= -2532
 c320: K_a4_a8 + K_a8_a4 = 1
 c321: u_a9 + K_a4_a9 - 1266 m_a4_proc_2 - 1266 m_a9_proc_2 - u_a4
       - 949 y_a4_proc_2 >= -2532
 c322: u_a9 + K_a4_a9 - 1266 m_a4_proc_1 - 1266 m_a9_proc_1 - u_a4
       - 916 y_a4_proc_1 >= -2532
 c323: K_a4_a9 + K_a9_a4 = 1
 c324: u_a4 + K_a9_a4 - 1266 m_a4_proc_2 - 1266 m_a9_proc_2 - u_a9
       - 1089 y_a9_proc_2 >= -2532
 c325: u_a4 + K_a9_a4 - 1266 m_a4_proc_1 - 1266 m_a9_proc_1 - u_a9
       - 753 y_a9_proc_1 >= -2532
 c326: K_a4_a9 + K_a9_a4 = 1
 c327: u_a6 + K_a5_a6 - 1266 m_a5_proc_2 - 1266 m_a6_proc_2 - u_a5
       - 1011 y_a5_proc_2 >= -2532
 c328: u_a6 + K_a5_a6 - 1266 m_a5_proc_3 - 1266 m_a6_proc_3 - u_a5
       - 966 y_a5_proc_3 >= -2532
 c329: u_a6 + K_a5_a6 - 1266 m_a5_proc_0 - 1266 m_a6_proc_0 - u_a5
       - 1186 y_a5_proc_0 >= -2532
 c330: K_a5_a6 + K_a6_a5 = 1
 c331: u_a5 + K_a6_a5 - 1266 m_a5_proc_2 - 1266 m_a6_proc_2 - u_a6
       - 789 y_a6_proc_2 >= -2532
 c332: u_a5 + K_a6_a5 - 1266 m_a5_proc_3 - 1266 m_a6_proc_3 - u_a6
       - 570 y_a6_proc_3 >= -2532
 c333: u_a5 + K_a6_a5 - 1266 m_a5_proc_0 - 1266 m_a6_proc_0 - u_a6
       - 1034 y_a6_proc_0 >= -2532
 c334: K_a5_a6 + K_a6_a5 = 1
 c335: u_a7 + K_a5_a7 - 1266 m_a5_proc_3 - 1266 m_a7_proc_3 - u_a5
       - 966 y_a5_proc_3 >= -2532
 c336: u_a7 + K_a5_a7 - 1266 m_a5_proc_1 - 1266 m_a7_proc_1 - u_a5
       - 641 y_a5_proc_1 >= -2532
 c337: K_a5_a7 + K_a7_a5 = 1
 c338: u_a5 + K_a7_a5 - 1266 m_a5_proc_3 - 1266 m_a7_proc_3 - u_a7
       - 1014 y_a7_proc_3 >= -2532
 c339: u_a5 + K_a7_a5 - 1266 m_a5_proc_1 - 1266 m_a7_proc_1 - u_a7
       - 1214 y_a7_proc_1 >= -2532
 c340: K_a5_a7 + K_a7_a5 = 1
 c341: u_a8 + K_a5_a8 - 1266 m_a5_proc_1 - 1266 m_a8_proc_1 - u_a5
       - 641 y_a5_proc_1 >= -2532
 c342: K_a5_a8 + K_a8_a5 = 1
 c343: u_a5 + K_a8_a5 - 1266 m_a5_proc_1 - 1266 m_a8_proc_1 - u_a8
       - 1124 y_a8_proc_1 >= -2532
 c344: K_a5_a8 + K_a8_a5 = 1
 c345: u_a9 + K_a5_a9 - 1266 m_a5_proc_2 - 1266 m_a9_proc_2 - u_a5
       - 1011 y_a5_proc_2 >= -2532
 c346: u_a9 + K_a5_a9 - 1266 m_a5_proc_3 - 1266 m_a9_proc_3 - u_a5
       - 966 y_a5_proc_3 >= -2532
 c347: u_a9 + K_a5_a9 - 1266 m_a5_proc_0 - 1266 m_a9_proc_0 - u_a5
       - 1186 y_a5_proc_0 >= -2532
 c348: u_a9 + K_a5_a9 - 1266 m_a5_proc_1 - 1266 m_a9_proc_1 - u_a5
       - 641 y_a5_proc_1 >= -2532
 c349: K_a5_a9 + K_a9_a5 = 1
 c350: u_a5 + K_a9_a5 - 1266 m_a5_proc_2 - 1266 m_a9_proc_2 - u_a9
       - 1089 y_a9_proc_2 >= -2532
 c351: u_a5 + K_a9_a5 - 1266 m_a5_proc_3 - 1266 m_a9_proc_3 - u_a9
       - 1151 y_a9_proc_3 >= -2532
 c352: u_a5 + K_a9_a5 - 1266 m_a5_proc_0 - 1266 m_a9_proc_0 - u_a9
       - 567 y_a9_proc_0 >= -2532
 c353: u_a5 + K_a9_a5 - 1266 m_a5_proc_1 - 1266 m_a9_proc_1 - u_a9
       - 753 y_a9_proc_1 >= -2532
 c354: K_a5_a9 + K_a9_a5 = 1
 c355: u_a7 + K_a6_a7 - 1266 m_a6_proc_3 - 1266 m_a7_proc_3 - u_a6
       - 570 y_a6_proc_3 >= -2532
 c356: K_a6_a7 + K_a7_a6 = 1
 c357: u_a6 + K_a7_a6 - 1266 m_a6_proc_3 - 1266 m_a7_proc_3 - u_a7
       - 1014 y_a7_proc_3 >= -2532
 c358: K_a6_a7 + K_a7_a6 = 1
 c359: u_a9 + K_a6_a9 - 1266 m_a6_proc_2 - 1266 m_a9_proc_2 - u_a6
       - 789 y_a6_proc_2 >= -2532
 c360: u_a9 + K_a6_a9 - 1266 m_a6_proc_3 - 1266 m_a9_proc_3 - u_a6
       - 570 y_a6_proc_3 >= -2532
 c361: u_a9 + K_a6_a9 - 1266 m_a6_proc_0 - 1266 m_a9_proc_0 - u_a6
       - 1034 y_a6_proc_0 >= -2532
 c362: K_a6_a9 + K_a9_a6 = 1
 c363: u_a6 + K_a9_a6 - 1266 m_a6_proc_2 - 1266 m_a9_proc_2 - u_a9
       - 1089 y_a9_proc_2 >= -2532
 c364: u_a6 + K_a9_a6 - 1266 m_a6_proc_3 - 1266 m_a9_proc_3 - u_a9
       - 1151 y_a9_proc_3 >= -2532
 c365: u_a6 + K_a9_a6 - 1266 m_a6_proc_0 - 1266 m_a9_proc_0 - u_a9
       - 567 y_a9_proc_0 >= -2532
 c366: K_a6_a9 + K_a9_a6 = 1
 c367: u_a8 + K_a7_a8 - 1266 m_a7_proc_1 - 1266 m_a8_proc_1 - u_a7
       - 1214 y_a7_proc_1 >= -2532
 c368: K_a7_a8 + K_a8_a7 = 1
 c369: u_a7 + K_a8_a7 - 1266 m_a7_proc_1 - 1266 m_a8_proc_1 - u_a8
       - 1124 y_a8_proc_1 >= -2532
 c370: K_a7_a8 + K_a8_a7 = 1
 c371: u_a9 + K_a7_a9 - 1266 m_a7_proc_3 - 1266 m_a9_proc_3 - u_a7
       - 1014 y_a7_proc_3 >= -2532
 c372: u_a9 + K_a7_a9 - 1266 m_a7_proc_1 - 1266 m_a9_proc_1 - u_a7
       - 1214 y_a7_proc_1 >= -2532
 c373: K_a7_a9 + K_a9_a7 = 1
 c374: u_a7 + K_a9_a7 - 1266 m_a7_proc_3 - 1266 m_a9_proc_3 - u_a9
       - 1151 y_a9_proc_3 >= -2532
 c375: u_a7 + K_a9_a7 - 1266 m_a7_proc_1 - 1266 m_a9_proc_1 - u_a9
       - 753 y_a9_proc_1 >= -2532
 c376: K_a7_a9 + K_a9_a7 = 1
 c377: u_a9 + K_a8_a9 - 1266 m_a8_proc_1 - 1266 m_a9_proc_1 - u_a8
       - 1124 y_a8_proc_1 >= -2532
 c378: K_a8_a9 + K_a9_a8 = 1
 c379: u_a8 + K_a9_a8 - 1266 m_a8_proc_1 - 1266 m_a9_proc_1 - u_a9
       - 753 y_a9_proc_1 >= -2532
 c380: K_a8_a9 + K_a9_a8 = 1

Bounds
       K_a0_a1 Free
       K_a0_a2 Free
       K_a0_a3 Free
       K_a0_a4 Free
       K_a0_a5 Free
       K_a0_a6 Free
       K_a0_a7 Free
       K_a0_a8 Free
       K_a0_a9 Free
       K_a1_a0 Free
       K_a1_a2 Free
       K_a1_a3 Free
       K_a1_a4 Free
       K_a1_a5 Free
       K_a1_a6 Free
       K_a1_a7 Free
       K_a1_a8 Free
       K_a1_a9 Free
       K_a2_a0 Free
       K_a2_a1 Free
       K_a2_a3 Free
       K_a2_a4 Free
       K_a2_a5 Free
       K_a2_a6 Free
       K_a2_a7 Free
       K_a2_a8 Free
       K_a2_a9 Free
       K_a3_a0 Free
       K_a3_a1 Free
       K_a3_a2 Free
       K_a3_a4 Free
       K_a3_a5 Free
       K_a3_a6 Free
       K_a3_a7 Free
       K_a3_a8 Free
       K_a3_a9 Free
       K_a4_a0 Free
       K_a4_a1 Free
       K_a4_a2 Free
       K_a4_a3 Free
       K_a4_a5 Free
       K_a4_a6 Free
       K_a4_a7 Free
       K_a4_a8 Free
       K_a4_a9 Free
       K_a5_a0 Free
       K_a5_a1 Free
       K_a5_a2 Free
       K_a5_a3 Free
       K_a5_a4 Free
       K_a5_a6 Free
       K_a5_a7 Free
       K_a5_a8 Free
       K_a5_a9 Free
       K_a6_a0 Free
       K_a6_a1 Free
       K_a6_a2 Free
       K_a6_a3 Free
       K_a6_a4 Free
       K_a6_a5 Free
       K_a6_a7 Free
       K_a6_a8 Free
       K_a6_a9 Free
       K_a7_a0 Free
       K_a7_a1 Free
       K_a7_a2 Free
       K_a7_a3 Free
       K_a7_a4 Free
       K_a7_a5 Free
       K_a7_a6 Free
       K_a7_a8 Free
       K_a7_a9 Free
       K_a8_a0 Free
       K_a8_a1 Free
       K_a8_a2 Free
       K_a8_a3 Free
       K_a8_a4 Free
       K_a8_a5 Free
       K_a8_a6 Free
       K_a8_a7 Free
       K_a8_a9 Free
       K_a9_a0 Free
       K_a9_a1 Free
       K_a9_a2 Free
       K_a9_a3 Free
       K_a9_a4 Free
       K_a9_a5 Free
       K_a9_a6 Free
       K_a9_a7 Free
       K_a9_a8 Free
 0 <= m_a0_proc_0 <= 1
 0 <= m_a0_proc_1 <= 1
 0 <= m_a0_proc_2 <= 1
 0 <= m_a1_proc_1 <= 1
 0 <= m_a1_proc_3 <= 1
 0 <= m_a2_proc_0 <= 1
 0 <= m_a2_proc_1 <= 1
 0 <= m_a2_proc_2 <= 1
 0 <= m_a2_proc_3 <= 1
 0 <= m_a3_proc_0 <= 1
 0 <= m_a3_proc_1 <= 1
 0 <= m_a3_proc_2 <= 1
 0 <= m_a3_proc_3 <= 1
 0 <= m_a4_proc_1 <= 1
 0 <= m_a4_proc_2 <= 1
 0 <= m_a5_proc_0 <= 1
 0 <= m_a5_proc_1 <= 1
 0 <= m_a5_proc_2 <= 1
 0 <= m_a5_proc_3 <= 1
 0 <= m_a6_proc_0 <= 1
 0 <= m_a6_proc_2 <= 1
 0 <= m_a6_proc_3 <= 1
 0 <= m_a7_proc_1 <= 1
 0 <= m_a7_proc_3 <= 1
 0 <= m_a8_proc_1 <= 1
 0 <= m_a9_proc_0 <= 1
 0 <= m_a9_proc_1 <= 1
 0 <= m_a9_proc_2 <= 1
 0 <= m_a9_proc_3 <= 1

Binaries
 m_a0_proc_0 m_a0_proc_1 m_a0_proc_2 m_a1_proc_1 m_a1_proc_3 m_a2_proc_0
 m_a2_proc_1 m_a2_proc_2 m_a2_proc_3 m_a3_proc_0 m_a3_proc_1 m_a3_proc_2
 m_a3_proc_3 m_a4_proc_1 m_a4_proc_2 m_a5_proc_0 m_a5_proc_1 m_a5_proc_2
 m_a5_proc_3 m_a6_proc_0 m_a6_proc_2 m_a6_proc_3 m_a7_proc_1 m_a7_proc_3
 m_a8_proc_1 m_a9_proc_0 m_a9_proc_1 m_a9_proc_2 m_a9_proc_3

Generals
 K_a0_a1 K_a0_a2 K_a0_a3 K_a0_a4 K_a0_a5 K_a0_a6 K_a0_a7 K_a0_a8 K_a0_a9 K_a1_a0
 K_a1_a2 K_a1_a3 K_a1_a4 K_a1_a5 K_a1_a6 K_a1_a7 K_a1_a8 K_a1_a9 K_a2_a0 K_a2_a1
 K_a2_a3 K_a2_a4 K_a2_a5 K_a2_a6 K_a2_a7 K_a2_a8 K_a2_a9 K_a3_a0 K_a3_a1 K_a3_a2
 K_a3_a4 K_a3_a5 K_a3_a6 K_a3_a7 K_a3_a8 K_a3_a9 K_a4_a0 K_a4_a1 K_a4_a2 K_a4_a3
 K_a4_a5 K_a4_a6 K_a4_a7 K_a4_a8 K_a4_a9 K_a5_a0 K_a5_a1 K_a5_a2 K_a5_a3 K_a5_a4
 K_a5_a6 K_a5_a7 K_a5_a8 K_a5_a9 K_a6_a0 K_a6_a1 K_a6_a2 K_a6_a3 K_a6_a4 K_a6_a5
 K_a6_a7 K_a6_a8 K_a6_a9 K_a7_a0 K_a7_a1 K_a7_a2 K_a7_a3 K_a7_a4 K_a7_a5 K_a7_a6
 K_a7_a8 K_a7_a9 K_a8_a0 K_a8_a1 K_a8_a2 K_a8_a3 K_a8_a4 K_a8_a5 K_a8_a6 K_a8_a7
 K_a8_a9 K_a9_a0 K_a9_a1 K_a9_a2 K_a9_a3 K_a9_a4 K_a9_a5 K_a9_a6 K_a9_a7 K_a9_a8
End
